c This is an instance of the exact track of PACE 2020 Challenge, see https://pacechallenge.org/2020/ 
c TYPE: named 
c ORIGIN: https://github.com/freetdi/named-graphs 
c DESCRIPTION: A flower snark J_5, see https://en.wikipedia.org/wiki/Flower_snark 
p tdp 20 30
1 2
1 7
1 8
2 13
2 4
13 14
13 18
14 15
14 9
15 16
15 7
16 17
16 3
17 18
17 10
18 19
19 20
19 6
20 3
20 11
3 4
4 5
5 6
5 12
6 7
8 9
8 12
9 10
10 11
11 12
